conp opti
cart
Al   2.0981   -2.7620   0.9607
Al   -0.1517   -1.2662   1.3434
Al   1.1708   1.0964   1.1392
Al   -4.3249   -0.4871   1.6030
Al   -2.6698   1.8697   1.3737
Al   -0.4751   3.4500   1.5430
Al   -0.4187   1.4612   3.3564
Al   -0.8402   -0.4474   -1.5125
Al   3.1655   -1.2625   -1.0826
Al   -0.7454   -3.5390   -1.2598
Al   1.1722   3.3349   -0.4136
Al   0.8002   -2.7685   -3.0092
Al   3.6952   1.3077   -0.7692
O   1.8897   2.2091   -1.6135
O   -2.0607   0.6934   -2.1744
O   -4.3051   -0.8979   -0.1380
O   -1.7124   -1.9689   -1.0064
O   0.0474   -0.8797   -2.9928
O   -.01225000000000000000   -.01225000000000000000   -.53375000000000000000
library streitzmintmire
